problems/csplib-prob015/SchursLemma-models/compact/O2/lingeling/model_1_1-6-14-solution000001.solution
language Essence 1.3

letting boxes be partition({1, 3, 5, 10, 12, 14}, {2, 4}, {6, 9}, {7}, {8, 13}, {11})
